sat
(model 
  (define-fun p () Bool false)
  (define-fun t () Bool true)
  (define-fun y () Bool true)
  (define-fun s () Bool false)
  (define-fun z () Bool false)
  (define-fun v () Bool false)
  (define-fun u () Bool false)
  (define-fun c () Bool false)
  (define-fun r () Bool false)
  (define-fun b () Bool true)
  (define-fun a () Bool true)
  (define-fun q () Bool true)
)

